p cnf 13 49
3 4 6 0
1 -2 9 0
-7 -11 13 0
3 7 11 0
2 -6 7 0
4 10 13 0
3 9 12 0
-1 12 -13 0
3 -6 11 0
-2 5 9 0
4 -9 13 0
-5 8 -9 0
-3 4 -7 0
-2 3 -8 0
-6 -9 -11 0
-1 8 -12 0
5 8 11 0
3 5 11 0
2 -8 -12 0
-6 -9 13 0
4 7 12 0
1 8 -9 0
2 10 -11 0
1 2 -6 0
-5 7 -11 0
3 6 10 0
-1 -5 10 0
2 -8 12 0
-4 -8 13 0
3 -6 -10 0
3 -8 -10 0
-5 8 11 0
1 -4 -13 0
2 -11 -13 0
1 7 -11 0
2 -9 12 0
-2 -6 -13 0
2 3 -7 0
2 7 -13 0
3 9 -13 0
-2 5 -7 0
-9 -11 13 0
-10 11 -12 0
-2 7 12 0
3 -5 -6 0
2 -7 -10 0
10 -11 -12 0
2 6 12 0
-4 -9 -13 0
